NAME : ClusterId_80 
COMMENT : (Gillet and Johnson) 
TYPE : CVRP 
DIMENSION : 10 
EDGE_WEIGHT_TYPE : EUC_2D 
CAPACITY : 140 
NODE_COORD_SECTION 
80 20 20 
64 15 5 
22 26 13 
42 15 14 
62 30 20 
41 12 17 
43 16 19 
73 27 24 
1 22 22 
33 26 29 
DEMAND_SECTION 
80 3270
64 28
22 12
42 11
62 18
41 15
43 18
73 6
1 18
33 27
DEPOT_SECTION 
80
 -1
EOF